27
62
96
89
1
3
99
63
66
22
5
12
52
34
76
46
18
97
44
0
79
6
85
8
28
72
60
33
9
49
29
36
14
94
73
75
80
7
20
25
92
64
47
23
88
56
84
91
86
55
16
30
35
50
54
13
43
51
17
32
90
78
58
69
53
31
4
93
41
71
70
38
37
24
42
2
98
57
45
81
83
48
74
39
68
21
67
26
82
19
61
87
10
15
40
77
11
65
95
59
